76
150
105	2
104	6
103	5
102	3
101	5
100	5
99	5
98	6
97	2
96	6
95	7
94	8
93	11
92	5
91	6
90	7
89	4
88	1
87	3
86	8
85	3
84	5
83	3
82	8
81	7
80	3
79	3
78	5
77	4
76	4
75	6
74	6
73	5
72	10
71	9
70	6
69	3
68	3
67	4
66	8
65	2
64	6
63	5
62	3
61	7
60	5
59	7
58	7
57	5
56	5
55	3
54	4
53	11
52	2
51	3
50	9
49	6
48	4
47	11
46	2
45	5
44	4
43	8
42	1
41	4
40	2
39	6
38	7
37	6
36	7
35	5
34	8
33	6
32	4
31	8
30	2
